BEGIN IONS
PEPMASS=183.005
CHARGE=1
MSLEVEL=2
SOURCE_INSTRUMENT=LC-ESI-Orbitrap
FILENAME=Training_004.mgf
SEQ=*..*
IONMODE= Negative
ORGANISM=CASMI
NAME="2,4-Dinitrophenol" M-H
PI=CASMI
DATACOLLECTOR=CASMI2016
SMILES=OC1=C(C=C(C=C1)[N+]([O-])=O)[N+]([O-])=O
INCHI="InChI=1S/C6H4N2O5/c9-6-2-1-4(7(10)11)3-5(6)8(12)13/h1-3,9H"
INCHIAUX=N/A
PUBMED=5959
SUBMITUSER=lfnothias
LIBRARYQUALITY=1
SPECTRUMID=CCMSLIB00000579361
SCANS=1
79.017197	4703.200195
95.012497	76666.601562
108.008202	2904.300049
109.0159	44577.898438
123.008202	251989.296875
125.011299	12037.700195
137.011703	57988.300781
153.006805	259966.796875
183.004807	1884965.0
END IONS


BEGIN IONS
PEPMASS=321.005
CHARGE=1
MSLEVEL=2
SOURCE_INSTRUMENT=LC-ESI-Orbitrap
FILENAME=Training_005.mgf
SEQ=*..*
IONMODE= Negative
ORGANISM=CASMI
NAME=0020_Chloramphenicol M-H
PI=CASMI
DATACOLLECTOR=CASMI2016
SMILES=OC[C@@H](NC(=O)C(Cl)Cl)[C@H](O)C1=CC=C(C=C1)[N+]([O-])=O
INCHI="InChI=1S/C11H12C O5/c12-10(13)11(18)14-8(5-16)9(17)6-1-3-7(4-2-6)15(19)20/h1-4,8-10,16-17H,5H2,(H,14,18)/t8-,9-/m1/s1"
INCHIAUX=N/A
PUBMED=6191
SUBMITUSER=lfnothias
LIBRARYQUALITY=1
SPECTRUMID=CCMSLIB00000579362
SCANS=1
84.007401	7387.5
121.0289	223649.59375
125.951302	5283.200195
126.935501	21456.400391
135.032196	3630.699951
148.040497	44612.5
150.019501	5283.100098
151.027496	222570.59375
152.035294	552376.375
159.032394	13298.700195
164.035095	4175.700195
166.014801	5893.799805
176.035294	103042.0
194.046005	146902.203125
219.041107	6374.600098
237.051804	19569.099609
249.052002	35508.898438
257.033508	282663.59375
321.005005	537175.125
END IONS


BEGIN IONS
PEPMASS=183.005
CHARGE=1
MSLEVEL=2
SOURCE_INSTRUMENT=LC-ESI-Orbitrap
FILENAME=Training_006.mgf
SEQ=*..*
IONMODE= Negative
ORGANISM=CASMI
NAME="2,3-Dinitrophenol" M-H
PI=CASMI
DATACOLLECTOR=CASMI2016
SMILES=OC1=C(C(=CC=C1)[N+]([O-])=O)[N+]([O-])=O
INCHI="InChI=1S/C6H4N2O5/c9-5-3-1-2-4(7(10)11)6(5)8(12)13/h1-3,9H"
INCHIAUX=N/A
PUBMED=9777
SUBMITUSER=lfnothias
LIBRARYQUALITY=1
SPECTRUMID=CCMSLIB00000579363
SCANS=1
79.017303	324874.8125
81.032997	70255.703125
82.004303	30365.699219
91.017403	340244.6875
92.012604	102656.203125
93.020599	166288.0
94.0047	80568.898438
95.012497	1037354.625
97.028198	201545.09375
107.012802	219308.703125
109.0159	303947.3125
111.007698	58515.101562
123.008301	526198.375
125.011398	814341.875
136.003998	26915.099609
137.011795	5148523.0
153.006805	1820389.375
183.004807	24736754.0
END IONS


BEGIN IONS
PEPMASS=212.979
CHARGE=1
MSLEVEL=2
SOURCE_INSTRUMENT=LC-ESI-Orbitrap
FILENAME=Training_007.mgf
SEQ=*..*
IONMODE= Negative
ORGANISM=CASMI
NAME=Perfluorobutanoic acid M-H
PI=CASMI
DATACOLLECTOR=CASMI2016
SMILES=OC(=O)C(F)(F)C(F)(F)C(F)(F)F
INCHI="InChI=1S/C4HF7O2/c5-2(6,1(12)13)3(7,8)4(9,10)11/h(H,12,13)"
INCHIAUX=N/A
PUBMED=6626
SUBMITUSER=lfnothias
LIBRARYQUALITY=1
SPECTRUMID=CCMSLIB00000579364
SCANS=1
168.989395	8945612.0
212.979004	157219.796875
END IONS


BEGIN IONS
PEPMASS=249.023
CHARGE=1
MSLEVEL=2
SOURCE_INSTRUMENT=LC-ESI-Orbitrap
FILENAME=Training_008.mgf
SEQ=*..*
IONMODE= Negative
ORGANISM=CASMI
NAME=0509_Bisphenol S M-H
PI=CASMI
DATACOLLECTOR=CASMI2016
SMILES=Oc1ccc(cc1)S(=O)(=O)c1ccc(O)cc1
INCHI="InChI=1S/C12H10O4S/c13-9-1-5-11(6-2-9)17(15,16)12-7-3-10(14)4-8-12/h1-8,13-14H"
INCHIAUX=N/A
PUBMED=4829
SUBMITUSER=lfnothias
LIBRARYQUALITY=1
SPECTRUMID=CCMSLIB00000579365
SCANS=1
155.988693	55092.898438
184.053406	8992.0
185.061295	9985.900391
249.022903	626098.0
END IONS


BEGIN IONS
PEPMASS=355.112
CHARGE=1
MSLEVEL=2
SOURCE_INSTRUMENT=LC-ESI-Orbitrap
FILENAME=Training_009.mgf
SEQ=*..*
IONMODE= Negative
ORGANISM=CASMI
NAME=2265_Pioglitazone M-H
PI=CASMI
DATACOLLECTOR=CASMI2016
SMILES=CCC1=CC=C(CCOC2=CC=C(CC3SC(=O)NC3=O)C=C2)N=C1
INCHI="InChI=1S/C19H20N2O3S/c1-2-13-3-6-15(20-12-13)9-10-24-16-7-4-14(5-8-16)11-17-18(22)21-19(23)25-17/h3-8,12,17H,2,9-11H2,1H3,(H,21,22,23)"
INCHIAUX=N/A
PUBMED=697993
SUBMITUSER=lfnothias
LIBRARYQUALITY=1
SPECTRUMID=CCMSLIB00000579366
SCANS=1
119.0494	5245.100098
150.014496	59115.199219
178.009506	6098.399902
234.994995	3503.5
284.111511	4140.299805
312.106293	58914.199219
355.112213	1814529.375
END IONS


BEGIN IONS
PEPMASS=347.118
CHARGE=1
MSLEVEL=2
SOURCE_INSTRUMENT=LC-ESI-Orbitrap
FILENAME=Training_012.mgf
SEQ=*..*
IONMODE= Negative
ORGANISM=CASMI
NAME=Torasemide M-H
PI=CASMI
DATACOLLECTOR=CASMI2016
SMILES=CC(C)NC(=O)NS(=O)(=O)c1cnccc1Nc1cccc(C)c1
INCHI="InChI=1S/C16H20N4O3S/c1-11(2)18-16(21)20-24(22,23)15-10-17-8-7-14(15)19-13-6-4-5-12(3)9-13/h4-11H,1-3H3,(H,17,19)(H2,18,20,21)"
INCHIAUX=N/A
PUBMED=4679
SUBMITUSER=lfnothias
LIBRARYQUALITY=1
SPECTRUMID=CCMSLIB00000579369
SCANS=1
108.031799	50593.0
150.996796	8673.900391
156.0	24948.699219
180.005402	5027.799805
181.064301	15716.200195
181.077103	5355.399902
183.092606	16773.5
194.071396	4349.899902
195.080093	113757.101562
196.087997	109740.101562
198.1035	36720.199219
210.0672	15952.200195
226.044907	8557.200195
244.054993	22459.400391
262.065613	1864390.625
347.118896	35762.5
END IONS


BEGIN IONS
PEPMASS=382.068
CHARGE=1
MSLEVEL=2
SOURCE_INSTRUMENT=LC-ESI-Orbitrap
FILENAME=Training_013.mgf
SEQ=*..*
IONMODE= Negative
ORGANISM=CASMI
NAME=2361_pantoprazole M-H
PI=CASMI
DATACOLLECTOR=CASMI2016
SMILES=COC1=CC=NC(CS(=O)C2=NC3=CC=C(OC(F)F)C=C3N2)=C1OC
INCHI="InChI=1S/C16H15F2N3O4S/c1-23-13-5-6-19-12(14(13)24-2)8-26(22)16-20-10-4-3-9(25-15(17)18)7-11(10)21-16/h3-7,15H,8H2,1-2H3,(H,20,21)"
INCHIAUX=N/A
PUBMED=3440
SUBMITUSER=lfnothias
LIBRARYQUALITY=1
SPECTRUMID=CCMSLIB00000579370
SCANS=1
102.021103	96186.703125
130.016998	19239.900391
133.994293	7522.899902
141.009506	6306.799805
147.019806	36219.300781
150.996994	6463.700195
161.015594	751385.875
161.989304	161537.296875
162.023407	202572.703125
178.018402	105149.0
178.992004	97545.203125
181.994995	10623.5
182.0298	11270.700195
189.983795	35895.101562
198.024597	12829.5
209.990402	336499.59375
229.996597	5550441.5
382.067688	84724.296875
END IONS


BEGIN IONS
PEPMASS=329.0
CHARGE=1
MSLEVEL=2
SOURCE_INSTRUMENT=LC-ESI-Orbitrap
FILENAME=Training_014.mgf
SEQ=*..*
IONMODE= Negative
ORGANISM=CASMI
NAME=0034_Furosemide M-H
PI=CASMI
DATACOLLECTOR=CASMI2016
SMILES=NS(=O)(=O)c1cc(C(O)=O)c(NCc2ccco2)cc1Cl
INCHI="InChI=1S/C12H11ClN2O5S/c13-9-5-10(15-6-7-2-1-3-20-7)8(12(16)17)4-11(9)21(14,18)19/h1-5,15H,6H2,(H,16,17)(H2,14,18,19)"
INCHIAUX=N/A
PUBMED=5281708
SUBMITUSER=lfnothias
LIBRARYQUALITY=1
SPECTRUMID=CCMSLIB00000579371
SCANS=1
79.017197	28674.699219
94.028297	8015.899902
116.049698	6620.399902
126.011101	400007.0
140.998398	4598.700195
141.045898	4144.299805
142.066101	7382.100098
144.046005	4071.600098
146.060898	5260.100098
156.069199	15656.099609
157.053207	16119.400391
157.076996	15066.799805
158.048401	3322.899902
167.061295	13362.900391
169.007904	18681.5
169.053101	5694.299805
170.0616	29198.300781
172.040405	4792.600098
173.072205	5430.799805
178.042694	8558.099609
179.037506	4613.799805
184.064697	3798.5
185.048492	4760.399902
185.071793	49455.699219
187.958298	5016.5
189.974106	3992.899902
201.066696	5064.0
203.975693	3497.0
204.984299	2139452.75
206.037704	178034.90625
221.048599	5337.200195
228.984299	14190.799805
243.000198	8035.0
249.033798	54606.300781
257.015991	7553.899902
267.000305	19020.699219
269.986694	6697.5
285.01059	1920764.375
329.000397	1697546.625
END IONS


BEGIN IONS
PEPMASS=253.051
CHARGE=1
MSLEVEL=2
SOURCE_INSTRUMENT=LC-ESI-Orbitrap
FILENAME=Training_015.mgf
SEQ=*..*
IONMODE= Negative
ORGANISM=CASMI
NAME=0498_Daidzein M-H
PI=CASMI
DATACOLLECTOR=CASMI2016
SMILES=OC1=CC=C(C=C1)C1=COC2=CC(O)=CC=C2C1=O
INCHI="InChI=1S/C15H10O4/c16-10-3-1-9(2-4-10)13-8-19-14-7-11(17)5-6-12(14)15(13)18/h1-8,16-17H"
INCHIAUX=N/A
PUBMED=91760
SUBMITUSER=lfnothias
LIBRARYQUALITY=1
SPECTRUMID=CCMSLIB00000579372
SCANS=1
132.021393	82825.796875
133.029297	290504.59375
135.008698	301494.3125
153.019104	34520.398438
160.016495	31911.300781
169.065994	130513.296875
180.057907	109176.898438
181.065796	69921.5
183.044601	36049.800781
195.045395	61923.199219
196.052994	178765.09375
197.060898	249743.90625
208.052994	365450.59375
209.060699	521835.90625
210.031998	34194.398438
211.039993	51815.300781
223.039902	188130.09375
224.047897	667013.6875
225.055695	328288.6875
252.042999	186405.40625
253.050598	26433456.0
END IONS

BEGIN IONS
PEPMASS=161.06
CHARGE=1
MSLEVEL=2
SOURCE_INSTRUMENT=LC-ESI-Orbitrap
FILENAME=Training_310.mgf
SEQ=*..*
IONMODE= Positive
ORGANISM=CASMI
NAME=4-Methylcoumarin M+H
PI=CASMI
DATACOLLECTOR=CASMI2016
SMILES=CC1=CC(=O)OC2=CC=CC=C12
INCHI="InChI=1S/C10H8O2/c1-7-6-10(11)12-9-5-3-2-4-8(7)9/h2-6H,1H3"
INCHIAUX=N/A
PUBMED=8343
SUBMITUSER=lfnothias
LIBRARYQUALITY=1
SPECTRUMID=CCMSLIB00000579923
SCANS=1
59.0494	3216.300049
79.054298	79828.203125
90.046402	19995.599609
91.054398	14388.900391
95.049202	4994.700195
101.059799	11530.200195
103.054298	74392.898438
105.044899	4435.299805
105.069901	74101.398438
117.069901	3081.0
118.041397	131953.703125
133.064896	966354.1875
146.036407	4623.200195
161.059799	1237729.375
END IONS


BEGIN IONS
PEPMASS=391.284
CHARGE=1
MSLEVEL=2
SOURCE_INSTRUMENT=LC-ESI-Orbitrap
FILENAME=Training_311.mgf
SEQ=*..*
IONMODE= Positive
ORGANISM=CASMI
NAME=Di(2-ethylhexyl)phthalate (DEHP) M+H
PI=CASMI
DATACOLLECTOR=CASMI2016
SMILES=CCCCC(CC)COC(=O)c1ccccc1C(=O)OCC(CC)CCCC
INCHI="InChI=1S/C24H38O4/c1-5-9-13-19(7-3)17-27-23(25)21-15-11-12-16-22(21)24(26)28-18-20(8-4)14-10-6-2/h11-12,15-16,19-20H,5-10,13-14,17-18H2,1-4H3"
INCHIAUX=N/A
PUBMED=9275
SUBMITUSER=lfnothias
LIBRARYQUALITY=1
SPECTRUMID=CCMSLIB00000579924
SCANS=1
57.070099	10143480.0
65.038597	511509.09375
71.085701	16105630.0
93.033501	413773.90625
113.132599	1283183.125
121.028603	2821603.25
121.039703	363531.09375
149.023499	123207080.0
163.039093	3117786.75
167.034103	15592827.0
181.049606	2586962.75
279.159485	2500050.75
391.284912	281438.8125
END IONS


BEGIN IONS
PEPMASS=323.235
CHARGE=1
MSLEVEL=2
SOURCE_INSTRUMENT=LC-ESI-Orbitrap
FILENAME=Training_312.mgf
SEQ=*..*
IONMODE= Positive
ORGANISM=CASMI
NAME=0827_Bis(2-ethylhexyl)phosphate M+H
PI=CASMI
DATACOLLECTOR=CASMI2016
SMILES=CCCCC(CC)COP(O)(=O)OCC(CC)CCCC
INCHI="InChI=1S/C16H35O4P/c1-5-9-11-15(7-3)13-19-21(17,18)20-14-16(8-4)12-10-6-2/h15-16H,5-14H2,1-4H3,(H,17,18)"
INCHIAUX=N/A
PUBMED=
SUBMITUSER=lfnothias
LIBRARYQUALITY=1
SPECTRUMID=CCMSLIB00000579925
SCANS=1
57.070099	592693.375
71.085602	890637.6875
98.9842	6920039.0
113.132599	42428.601562
116.994797	39000.101562
131.0103	65117.800781
END IONS

