BEGIN IONS
PEPMASS=183.005
CHARGE=1
MSLEVEL=2
SOURCE_INSTRUMENT=LC-ESI-Orbitrap
FILENAME=Training_004.mgf
SEQ=*..*
IONMODE= Negative
ORGANISM=CASMI
NAME="2,4-Dinitrophenol" M-H
PI=CASMI
DATACOLLECTOR=CASMI2016
SMILES=OC1=C(C=C(C=C1)[N+]([O-])=O)[N+]([O-])=O
INCHI="InChI=1S/C6H4N2O5/c9-6-2-1-4(7(10)11)3-5(6)8(12)13/h1-3,9H"
INCHIAUX=N/A
PUBMED=5959
SUBMITUSER=lfnothias
LIBRARYQUALITY=1
SPECTRUMID=CCMSLIB00000579361
SCANS=1
79.017197	4703.200195
95.012497	76666.601562
108.008202	2904.300049
109.0159	44577.898438
123.008202	251989.296875
125.011299	12037.700195
137.011703	57988.300781
153.006805	259966.796875
183.004807	1884965.0
END IONS


BEGIN IONS
PEPMASS=183.005
CHARGE=1
MSLEVEL=2
SOURCE_INSTRUMENT=LC-ESI-Orbitrap
FILENAME=Training_006.mgf
SEQ=*..*
IONMODE= Negative
ORGANISM=CASMI
NAME="2,3-Dinitrophenol" M-H
PI=CASMI
DATACOLLECTOR=CASMI2016
SMILES=OC1=C(C(=CC=C1)[N+]([O-])=O)[N+]([O-])=O
INCHI="InChI=1S/C6H4N2O5/c9-5-3-1-2-4(7(10)11)6(5)8(12)13/h1-3,9H"
INCHIAUX=N/A
PUBMED=9777
SUBMITUSER=lfnothias
LIBRARYQUALITY=1
SPECTRUMID=CCMSLIB00000579363
SCANS=1
79.017303	324874.8125
81.032997	70255.703125
82.004303	30365.699219
91.017403	340244.6875
92.012604	102656.203125
93.020599	166288.0
94.0047	80568.898438
95.012497	1037354.625
97.028198	201545.09375
107.012802	219308.703125
109.0159	303947.3125
111.007698	58515.101562
123.008301	526198.375
125.011398	814341.875
136.003998	26915.099609
137.011795	5148523.0
153.006805	1820389.375
183.004807	24736754.0
END IONS


BEGIN IONS
PEPMASS=249.023
CHARGE=1
MSLEVEL=2
SOURCE_INSTRUMENT=LC-ESI-Orbitrap
FILENAME=Training_008.mgf
SEQ=*..*
IONMODE= Negative
ORGANISM=CASMI
NAME=0509_Bisphenol S M-H
PI=CASMI
DATACOLLECTOR=CASMI2016
SMILES=Oc1ccc(cc1)S(=O)(=O)c1ccc(O)cc1
INCHI="InChI=1S/C12H10O4S/c13-9-1-5-11(6-2-9)17(15,16)12-7-3-10(14)4-8-12/h1-8,13-14H"
INCHIAUX=N/A
PUBMED=4829
SUBMITUSER=lfnothias
LIBRARYQUALITY=1
SPECTRUMID=CCMSLIB00000579365
SCANS=1
155.988693	55092.898438
184.053406	8992.0
185.061295	9985.900391
249.022903	626098.0
END IONS


BEGIN IONS
PEPMASS=355.112
CHARGE=1
MSLEVEL=2
SOURCE_INSTRUMENT=LC-ESI-Orbitrap
FILENAME=Training_009.mgf
SEQ=*..*
IONMODE= Negative
ORGANISM=CASMI
NAME=2265_Pioglitazone M-H
PI=CASMI
DATACOLLECTOR=CASMI2016
SMILES=CCC1=CC=C(CCOC2=CC=C(CC3SC(=O)NC3=O)C=C2)N=C1
INCHI="InChI=1S/C19H20N2O3S/c1-2-13-3-6-15(20-12-13)9-10-24-16-7-4-14(5-8-16)11-17-18(22)21-19(23)25-17/h3-8,12,17H,2,9-11H2,1H3,(H,21,22,23)"
INCHIAUX=N/A
PUBMED=697993
SUBMITUSER=lfnothias
LIBRARYQUALITY=1
SPECTRUMID=CCMSLIB00000579366
SCANS=1
119.0494	5245.100098
150.014496	59115.199219
178.009506	6098.399902
234.994995	3503.5
284.111511	4140.299805
312.106293	58914.199219
355.112213	1814529.375
END IONS


BEGIN IONS
PEPMASS=347.118
CHARGE=1
MSLEVEL=2
SOURCE_INSTRUMENT=LC-ESI-Orbitrap
FILENAME=Training_012.mgf
SEQ=*..*
IONMODE= Negative
ORGANISM=CASMI
NAME=Torasemide M-H
PI=CASMI
DATACOLLECTOR=CASMI2016
SMILES=CC(C)NC(=O)NS(=O)(=O)c1cnccc1Nc1cccc(C)c1
INCHI="InChI=1S/C16H20N4O3S/c1-11(2)18-16(21)20-24(22,23)15-10-17-8-7-14(15)19-13-6-4-5-12(3)9-13/h4-11H,1-3H3,(H,17,19)(H2,18,20,21)"
INCHIAUX=N/A
PUBMED=4679
SUBMITUSER=lfnothias
LIBRARYQUALITY=1
SPECTRUMID=CCMSLIB00000579369
SCANS=1
108.031799	50593.0
150.996796	8673.900391
156.0	24948.699219
180.005402	5027.799805
181.064301	15716.200195
181.077103	5355.399902
183.092606	16773.5
194.071396	4349.899902
195.080093	113757.101562
196.087997	109740.101562
198.1035	36720.199219
210.0672	15952.200195
226.044907	8557.200195
244.054993	22459.400391
262.065613	1864390.625
347.118896	35762.5
END IONS


BEGIN IONS
PEPMASS=253.051
CHARGE=1
MSLEVEL=2
SOURCE_INSTRUMENT=LC-ESI-Orbitrap
FILENAME=Training_015.mgf
SEQ=*..*
IONMODE= Negative
ORGANISM=CASMI
NAME=0498_Daidzein M-H
PI=CASMI
DATACOLLECTOR=CASMI2016
SMILES=OC1=CC=C(C=C1)C1=COC2=CC(O)=CC=C2C1=O
INCHI="InChI=1S/C15H10O4/c16-10-3-1-9(2-4-10)13-8-19-14-7-11(17)5-6-12(14)15(13)18/h1-8,16-17H"
INCHIAUX=N/A
PUBMED=91760
SUBMITUSER=lfnothias
LIBRARYQUALITY=1
SPECTRUMID=CCMSLIB00000579372
SCANS=1
132.021393	82825.796875
133.029297	290504.59375
135.008698	301494.3125
153.019104	34520.398438
160.016495	31911.300781
169.065994	130513.296875
180.057907	109176.898438
181.065796	69921.5
183.044601	36049.800781
195.045395	61923.199219
196.052994	178765.09375
197.060898	249743.90625
208.052994	365450.59375
209.060699	521835.90625
210.031998	34194.398438
211.039993	51815.300781
223.039902	188130.09375
224.047897	667013.6875
225.055695	328288.6875
252.042999	186405.40625
253.050598	26433456.0
END IONS

BEGIN IONS
PEPMASS=161.06
CHARGE=1
MSLEVEL=2
SOURCE_INSTRUMENT=LC-ESI-Orbitrap
FILENAME=Training_310.mgf
SEQ=*..*
IONMODE= Positive
ORGANISM=CASMI
NAME=4-Methylcoumarin M+H
PI=CASMI
DATACOLLECTOR=CASMI2016
SMILES=CC1=CC(=O)OC2=CC=CC=C12
INCHI="InChI=1S/C10H8O2/c1-7-6-10(11)12-9-5-3-2-4-8(7)9/h2-6H,1H3"
INCHIAUX=N/A
PUBMED=8343
SUBMITUSER=lfnothias
LIBRARYQUALITY=1
SPECTRUMID=CCMSLIB00000579923
SCANS=1
59.0494	3216.300049
79.054298	79828.203125
90.046402	19995.599609
91.054398	14388.900391
95.049202	4994.700195
101.059799	11530.200195
103.054298	74392.898438
105.044899	4435.299805
105.069901	74101.398438
117.069901	3081.0
118.041397	131953.703125
133.064896	966354.1875
146.036407	4623.200195
161.059799	1237729.375
END IONS


BEGIN IONS
PEPMASS=391.284
CHARGE=1
MSLEVEL=2
SOURCE_INSTRUMENT=LC-ESI-Orbitrap
FILENAME=Training_311.mgf
SEQ=*..*
IONMODE= Positive
ORGANISM=CASMI
NAME=Di(2-ethylhexyl)phthalate (DEHP) M+H
PI=CASMI
DATACOLLECTOR=CASMI2016
SMILES=CCCCC(CC)COC(=O)c1ccccc1C(=O)OCC(CC)CCCC
INCHI="InChI=1S/C24H38O4/c1-5-9-13-19(7-3)17-27-23(25)21-15-11-12-16-22(21)24(26)28-18-20(8-4)14-10-6-2/h11-12,15-16,19-20H,5-10,13-14,17-18H2,1-4H3"
INCHIAUX=N/A
PUBMED=9275
SUBMITUSER=lfnothias
LIBRARYQUALITY=1
SPECTRUMID=CCMSLIB00000579924
SCANS=1
57.070099	10143480.0
65.038597	511509.09375
71.085701	16105630.0
93.033501	413773.90625
113.132599	1283183.125
121.028603	2821603.25
121.039703	363531.09375
149.023499	123207080.0
163.039093	3117786.75
167.034103	15592827.0
181.049606	2586962.75
279.159485	2500050.75
391.284912	281438.8125
END IONS


BEGIN IONS
PEPMASS=323.235
CHARGE=1
MSLEVEL=2
SOURCE_INSTRUMENT=LC-ESI-Orbitrap
FILENAME=Training_312.mgf
SEQ=*..*
IONMODE= Positive
ORGANISM=CASMI
NAME=0827_Bis(2-ethylhexyl)phosphate M+H
PI=CASMI
DATACOLLECTOR=CASMI2016
SMILES=CCCCC(CC)COP(O)(=O)OCC(CC)CCCC
INCHI="InChI=1S/C16H35O4P/c1-5-9-11-15(7-3)13-19-21(17,18)20-14-16(8-4)12-10-6-2/h15-16H,5-14H2,1-4H3,(H,17,18)"
INCHIAUX=N/A
PUBMED=
SUBMITUSER=lfnothias
LIBRARYQUALITY=1
SPECTRUMID=CCMSLIB00000579925
SCANS=1
57.070099	592693.375
71.085602	890637.6875
98.9842	6920039.0
113.132599	42428.601562
116.994797	39000.101562
131.0103	65117.800781
END IONS